p cnf 572
-10 -178
-11 -181
-12 -184
-13 -187
-14 -190
-15 -193
-16 -196
-17 -199
-18 -202
-19 203
-20 204
-21 205
-22 206
-23 -11
-23 -12
11 12 23
-24 -13
-24 -14
13 14 24
-25 -15
-25 -16
15 16 25
-26 -17
-26 -18
17 18 26
-27 -19
-27 -20
19 20 27
-28 -21
-28 -22
21 22 28
-29 23
-29 24
-23 -24 29
-30 25
-30 26
-25 -26 30
-31 27
-31 28
-27 -28 31
-32 29
-32 30
-29 -30 32
-33 31
-33 32
-31 -32 33
-34 -10
-34 11
10 -11 34
-35 10
-35 -11
-10 11 35
-36 -34
-36 -35
34 35 36
-37 10
-37 11
-10 -11 37
-38 -10
-38 -36
10 36 38
-39 10
-39 36
-10 -36 39
-40 -38
-40 -39
38 39 40
-41 10
-41 -36
-10 36 41
-42 -37
-42 -41
37 41 42
-43 -11
-43 12
11 -12 43
-44 11
-44 -12
-11 12 44
-45 -43
-45 -44
43 44 45
-46 11
-46 12
-11 -12 46
-47 42
-47 -45
-42 45 47
-48 -42
-48 45
42 -45 48
-49 -47
-49 -48
47 48 49
-50 -42
-50 -45
42 45 50
-51 -46
-51 -50
46 50 51
-52 -12
-52 13
12 -13 52
-53 12
-53 -13
-12 13 53
-54 -52
-54 -53
52 53 54
-55 12
-55 13
-12 -13 55
-56 51
-56 -54
-51 54 56
-57 -51
-57 54
51 -54 57
-58 -56
-58 -57
56 57 58
-59 -51
-59 -54
51 54 59
-60 -55
-60 -59
55 59 60
-61 -13
-61 14
13 -14 61
-62 13
-62 -14
-13 14 62
-63 -61
-63 -62
61 62 63
-64 13
-64 14
-13 -14 64
-65 60
-65 -63
-60 63 65
-66 -60
-66 63
60 -63 66
-67 -65
-67 -66
65 66 67
-68 -60
-68 -63
60 63 68
-69 -64
-69 -68
64 68 69
-70 -14
-70 15
14 -15 70
-71 14
-71 -15
-14 15 71
-72 -70
-72 -71
70 71 72
-73 14
-73 15
-14 -15 73
-74 69
-74 -72
-69 72 74
-75 -69
-75 72
69 -72 75
-76 -74
-76 -75
74 75 76
-77 -69
-77 -72
69 72 77
-78 -73
-78 -77
73 77 78
-79 -15
-79 16
15 -16 79
-80 15
-80 -16
-15 16 80
-81 -79
-81 -80
79 80 81
-82 15
-82 16
-15 -16 82
-83 78
-83 -81
-78 81 83
-84 -78
-84 81
78 -81 84
-85 -83
-85 -84
83 84 85
-86 -78
-86 -81
78 81 86
-87 -82
-87 -86
82 86 87
-88 -16
-88 17
16 -17 88
-89 16
-89 -17
-16 17 89
-90 -88
-90 -89
88 89 90
-91 16
-91 17
-16 -17 91
-92 87
-92 -90
-87 90 92
-93 -87
-93 90
87 -90 93
-94 -92
-94 -93
92 93 94
-95 -87
-95 -90
87 90 95
-96 -91
-96 -95
91 95 96
-97 -17
-97 18
17 -18 97
-98 17
-98 -18
-17 18 98
-99 -97
-99 -98
97 98 99
-100 17
-100 18
-17 -18 100
-101 96
-101 -99
-96 99 101
-102 -96
-102 99
96 -99 102
-103 -101
-103 -102
101 102 103
-104 -96
-104 -99
96 99 104
-105 -100
-105 -104
100 104 105
-106 -18
-106 19
18 -19 106
-107 18
-107 -19
-18 19 107
-108 -106
-108 -107
106 107 108
-109 18
-109 19
-18 -19 109
-110 105
-110 -108
-105 108 110
-111 -105
-111 108
105 -108 111
-112 -110
-112 -111
110 111 112
-113 -105
-113 -108
105 108 113
-114 -109
-114 -113
109 113 114
-115 -19
-115 20
19 -20 115
-116 19
-116 -20
-19 20 116
-117 -115
-117 -116
115 116 117
-118 19
-118 20
-19 -20 118
-119 114
-119 -117
-114 117 119
-120 -114
-120 117
114 -117 120
-121 -119
-121 -120
119 120 121
-122 -114
-122 -117
114 117 122
-123 -118
-123 -122
118 122 123
-124 -20
-124 21
20 -21 124
-125 20
-125 -21
-20 21 125
-126 -124
-126 -125
124 125 126
-127 20
-127 21
-20 -21 127
-128 123
-128 -126
-123 126 128
-129 -123
-129 126
123 -126 129
-130 -128
-130 -129
128 129 130
-131 -123
-131 -126
123 126 131
-132 -127
-132 -131
127 131 132
-133 -21
-133 22
21 -22 133
-134 21
-134 -22
-21 22 134
-135 -133
-135 -134
133 134 135
-136 21
-136 22
-21 -22 136
-137 132
-137 -135
-132 135 137
-138 -132
-138 135
132 -135 138
-139 -137
-139 -138
137 138 139
-140 -132
-140 -135
132 135 140
-141 -136
-141 -140
136 140 141
-142 10
-142 -40
-10 40 142
-143 -10
-143 12
10 -12 143
-144 -142
-144 -143
142 143 144
-145 10
-145 -49
-10 49 145
-146 -10
-146 13
10 -13 146
-147 -145
-147 -146
145 146 147
-148 10
-148 -58
-10 58 148
-149 -10
-149 14
10 -14 149
-150 -148
-150 -149
148 149 150
-151 10
-151 -67
-10 67 151
-152 -10
-152 15
10 -15 152
-153 -151
-153 -152
151 152 153
-154 10
-154 -76
-10 76 154
-155 -10
-155 16
10 -16 155
-156 -154
-156 -155
154 155 156
-157 10
-157 -85
-10 85 157
-158 -10
-158 17
10 -17 158
-159 -157
-159 -158
157 158 159
-160 10
-160 -94
-10 94 160
-161 -10
-161 18
10 -18 161
-162 -160
-162 -161
160 161 162
-163 10
-163 -103
-10 103 163
-164 -10
-164 19
10 -19 164
-165 -163
-165 -164
163 164 165
-166 10
-166 -112
-10 112 166
-167 -10
-167 20
10 -20 167
-168 -166
-168 -167
166 167 168
-169 10
-169 -121
-10 121 169
-170 -10
-170 21
10 -21 170
-171 -169
-171 -170
169 170 171
-172 10
-172 -130
-10 130 172
-173 -10
-173 22
10 -22 173
-174 -172
-174 -173
172 173 174
-175 10
-175 -139
-10 139 175
-176 1
-176 33
-1 -33 176
-177 -33
-177 34
33 -34 177
-178 -176
-178 -177
176 177 178
-179 2
-179 33
-2 -33 179
-180 -33
-180 -144
33 144 180
-181 -179
-181 -180
179 180 181
-182 3
-182 33
-3 -33 182
-183 -33
-183 -147
33 147 183
-184 -182
-184 -183
182 183 184
-185 4
-185 33
-4 -33 185
-186 -33
-186 -150
33 150 186
-187 -185
-187 -186
185 186 187
-188 5
-188 33
-5 -33 188
-189 -33
-189 -153
33 153 189
-190 -188
-190 -189
188 189 190
-191 6
-191 33
-6 -33 191
-192 -33
-192 -156
33 156 192
-193 -191
-193 -192
191 192 193
-194 7
-194 33
-7 -33 194
-195 -33
-195 -159
33 159 195
-196 -194
-196 -195
194 195 196
-197 8
-197 33
-8 -33 197
-198 -33
-198 -162
33 162 198
-199 -197
-199 -198
197 198 199
-200 9
-200 33
-9 -33 200
-201 -33
-201 -165
33 165 201
-202 -200
-202 -201
200 201 202
-203 -33
-203 -168
33 168 203
-204 -33
-204 -171
33 171 204
-205 -33
-205 -174
33 174 205
-206 -33
-206 175
33 -175 206
-207 -22
-207 141
22 -141 207
-208 10
-208 -207
-10 207 208
208
